data;
set K:= K1 K2 K3 K4 K5 K6 K7 ;

set F:= F1 F2 ;

set Q:= Q1 Q2 ;

param T:= 45;
param V: 
	K1  K2  K3  K4  K5  K6  K7  :=
Q1	1   1   1   1   0   0   0   
Q2	0   0   0   0   1   1   1   
; # if resorce k is of type q

param TF:= 
K1 6
K2 6
K3 6
K4 6
K5 12
K6 12
K7 12
; # number of continuous time slots resource can fly

param TR:= 
K1 2
K2 2
K3 2
K4 2
K5 4
K6 4
K7 4
; #  number of continuous time slots resource k needs to rest between flights

param P:= 
K1 36
K2 36
K3 36
K4 36
K5 36
K6 36
K7 36
; #  number of continuous time slots a pilot can be present including rest times for resource k 

param N:= 
K1 4
K2 4
K3 4
K4 4
K5 2
K6 2
K7 2
; # max number of flights resource k can fly in the total time period

param A: 
	K1  K2  K3  K4  K5  K6  K7  :=
1	1   1   1   1   1   1   1   
2	1   1   1   1   1   1   1   
3	1   1   1   1   1   1   1   
4	1   1   1   1   1   1   1   
5	1   1   1   1   1   1   1   
6	1   1   1   1   1   1   1   
7	1   1   1   1   1   1   1   
8	1   1   1   1   1   1   1   
9	1   1   1   1   1   1   1   
10	1   1   1   1   1   1   1   
11	1   1   1   1   1   1   1   
12	1   1   1   1   1   1   1   
13	1   1   1   1   1   1   1   
14	1   1   1   1   1   1   1   
15	1   1   1   1   1   1   1   
16	1   1   1   1   1   1   1   
17	1   1   1   1   1   1   1   
18	1   1   1   1   1   1   1   
19	1   1   1   1   1   1   1   
20	1   1   1   1   1   1   1   
21	1   1   1   1   1   1   1   
22	1   1   1   1   1   1   1   
23	1   1   1   1   1   1   1   
24	1   1   1   1   1   1   1   
25	1   1   1   1   1   1   1   
26	1   1   1   1   1   1   1   
27	1   1   1   1   1   1   1   
28	1   1   1   1   1   1   1   
29	1   1   1   1   1   1   1   
30	1   1   1   1   1   1   1   
31	1   1   1   1   1   1   1   
32	1   1   1   1   1   1   1   
33	1   1   1   1   1   1   1   
34	1   1   1   1   1   1   1   
35	1   1   1   1   1   1   1   
36	1   1   1   1   1   1   1   
37	1   1   1   1   1   1   1   
38	1   1   1   1   1   1   1   
39	1   1   1   1   1   1   1   
40	1   1   1   1   1   1   1   
41	1   1   1   1   1   1   1   
42	1   1   1   1   1   1   1   
43	1   1   1   1   1   1   1   
44	1   1   1   1   1   1   1   
45	1   1   1   1   1   1   1   
; # availability of resorce k in time slot t

param B: 
	F1  F2  :=
Q1	0   0   
Q2	0   0   
; # if front f requires resources of type q

param U: 
	F1  F2  :=
K1	0   0   
K2	0   0   
K3	0   0   
K4	0   0   
K5	2   2   
K6	2   2   
K7	2   2   
; # transit time of resource

param C:= 
K1 900
K2 900
K3 1500
K4 4500
K5 5500
K6 5500
K7 5500
; #  water capacity of resource k

param S:= 
F1 7
F2 10
; # max number of resources that can fly at front f in the same time slot

param D:= 

[*,*,F1 ]:  K1    K2    K3    K4    K5    K6    K7    :=
1           1.42  1.42  1.42  1.13  0.85  0.85  0.85  
2           1.42  1.42  1.42  1.13  0.85  0.85  0.85  
3           1.42  1.42  1.42  1.13  0.85  0.85  0.85  
4           1.42  1.42  1.42  1.13  0.85  0.85  0.85  
5           1.42  1.42  1.42  1.13  0.85  0.85  0.85  
6           1.42  1.42  1.42  1.13  0.85  0.85  0.85  
7           1.42  1.42  1.42  1.13  0.85  0.85  0.85  
8           1.42  1.42  1.42  1.13  0.85  0.85  0.85  
9           1.42  1.42  1.42  1.13  0.85  0.85  0.85  
10          1.42  1.42  1.42  1.13  0.85  0.85  0.85  
11          1.42  1.42  1.42  1.13  0.85  0.85  0.85  
12          1.42  1.42  1.42  1.13  0.85  0.85  0.85  
13          1.42  1.42  1.42  1.13  0.85  0.85  0.85  
14          1.42  1.42  1.42  1.13  0.85  0.85  0.85  
15          1.42  1.42  1.42  1.13  0.85  0.85  0.85  
16          1.42  1.42  1.42  1.13  0.85  0.85  0.85  
17          1.42  1.42  1.42  1.13  0.85  0.85  0.85  
18          1.42  1.42  1.42  1.13  0.85  0.85  0.85  
19          1.42  1.42  1.42  1.13  0.85  0.85  0.85  
20          1.42  1.42  1.42  1.13  0.85  0.85  0.85  
21          1.42  1.42  1.42  1.13  0.85  0.85  0.85  
22          1.42  1.42  1.42  1.13  0.85  0.85  0.85  
23          1.42  1.42  1.42  1.13  0.85  0.85  0.85  
24          1.42  1.42  1.42  1.13  0.85  0.85  0.85  
25          1.35  1.35  1.35  1.07  0.81  0.81  0.81  
26          1.35  1.35  1.35  1.07  0.81  0.81  0.81  
27          1.35  1.35  1.35  1.07  0.81  0.81  0.81  
28          1.35  1.35  1.35  1.07  0.81  0.81  0.81  
29          1.35  1.35  1.35  1.07  0.81  0.81  0.81  
30          1.35  1.35  1.35  1.07  0.81  0.81  0.81  
31          1.35  1.35  1.35  1.07  0.81  0.81  0.81  
32          1.35  1.35  1.35  1.07  0.81  0.81  0.81  
33          1.35  1.35  1.35  1.07  0.81  0.81  0.81  
34          1.42  1.42  1.42  1.13  0.85  0.85  0.85  
35          1.42  1.42  1.42  1.13  0.85  0.85  0.85  
36          1.42  1.42  1.42  1.13  0.85  0.85  0.85  
37          1.42  1.42  1.42  1.13  0.85  0.85  0.85  
38          1.42  1.42  1.42  1.13  0.85  0.85  0.85  
39          1.42  1.42  1.42  1.13  0.85  0.85  0.85  
40          1.42  1.42  1.42  1.13  0.85  0.85  0.85  
41          1.42  1.42  1.42  1.13  0.85  0.85  0.85  
42          1.42  1.42  1.42  1.13  0.85  0.85  0.85  
43          1.42  1.42  1.42  1.13  0.85  0.85  0.85  
44          1.42  1.42  1.42  1.13  0.85  0.85  0.85  
45          1.42  1.42  1.42  1.13  0.85  0.85  0.85  

[*,*,F2 ]:  K1    K2    K3    K4    K5    K6    K7    :=
1           1.54  1.54  1.54  1.22  0.92  0.92  0.92  
2           1.54  1.54  1.54  1.22  0.92  0.92  0.92  
3           1.54  1.54  1.54  1.22  0.92  0.92  0.92  
4           1.54  1.54  1.54  1.22  0.92  0.92  0.92  
5           1.54  1.54  1.54  1.22  0.92  0.92  0.92  
6           1.54  1.54  1.54  1.22  0.92  0.92  0.92  
7           1.54  1.54  1.54  1.22  0.92  0.92  0.92  
8           1.54  1.54  1.54  1.22  0.92  0.92  0.92  
9           1.54  1.54  1.54  1.22  0.92  0.92  0.92  
10          1.54  1.54  1.54  1.22  0.92  0.92  0.92  
11          1.54  1.54  1.54  1.22  0.92  0.92  0.92  
12          1.54  1.54  1.54  1.22  0.92  0.92  0.92  
13          1.54  1.54  1.54  1.22  0.92  0.92  0.92  
14          1.54  1.54  1.54  1.22  0.92  0.92  0.92  
15          1.54  1.54  1.54  1.22  0.92  0.92  0.92  
16          1.54  1.54  1.54  1.22  0.92  0.92  0.92  
17          1.54  1.54  1.54  1.22  0.92  0.92  0.92  
18          1.54  1.54  1.54  1.22  0.92  0.92  0.92  
19          1.54  1.54  1.54  1.22  0.92  0.92  0.92  
20          1.54  1.54  1.54  1.22  0.92  0.92  0.92  
21          1.54  1.54  1.54  1.22  0.92  0.92  0.92  
22          1.54  1.54  1.54  1.22  0.92  0.92  0.92  
23          1.54  1.54  1.54  1.22  0.92  0.92  0.92  
24          1.54  1.54  1.54  1.22  0.92  0.92  0.92  
25          1.46  1.46  1.46  1.16  0.87  0.87  0.87  
26          1.46  1.46  1.46  1.16  0.87  0.87  0.87  
27          1.46  1.46  1.46  1.16  0.87  0.87  0.87  
28          1.46  1.46  1.46  1.16  0.87  0.87  0.87  
29          1.46  1.46  1.46  1.16  0.87  0.87  0.87  
30          1.46  1.46  1.46  1.16  0.87  0.87  0.87  
31          1.46  1.46  1.46  1.16  0.87  0.87  0.87  
32          1.46  1.46  1.46  1.16  0.87  0.87  0.87  
33          1.46  1.46  1.46  1.16  0.87  0.87  0.87  
34          1.54  1.54  1.54  1.22  0.92  0.92  0.92  
35          1.54  1.54  1.54  1.22  0.92  0.92  0.92  
36          1.54  1.54  1.54  1.22  0.92  0.92  0.92  
37          1.54  1.54  1.54  1.22  0.92  0.92  0.92  
38          1.54  1.54  1.54  1.22  0.92  0.92  0.92  
39          1.54  1.54  1.54  1.22  0.92  0.92  0.92  
40          1.54  1.54  1.54  1.22  0.92  0.92  0.92  
41          1.54  1.54  1.54  1.22  0.92  0.92  0.92  
42          1.54  1.54  1.54  1.22  0.92  0.92  0.92  
43          1.54  1.54  1.54  1.22  0.92  0.92  0.92  
44          1.54  1.54  1.54  1.22  0.92  0.92  0.92  
45          1.54  1.54  1.54  1.22  0.92  0.92  0.92  
; # downloads resource k can do at front f in time t if intermediate time slot

param E:= 

[*,*,F1 ]:  K1    K2    K3    K4    K5    K6    K7    :=
1           0.64  0.17  0.71  0.52  0.32  0.45  0.06  
2           0.64  0.17  0.71  0.52  0.32  0.45  0.06  
3           0.64  0.17  0.71  0.52  0.32  0.45  0.06  
4           0.64  0.17  0.71  0.52  0.32  0.45  0.06  
5           0.64  0.17  0.71  0.52  0.32  0.45  0.06  
6           0.64  0.17  0.71  0.52  0.32  0.45  0.06  
7           0.64  0.17  0.71  0.52  0.32  0.45  0.06  
8           0.64  0.17  0.71  0.52  0.32  0.45  0.06  
9           0.64  0.17  0.71  0.52  0.32  0.45  0.06  
10          0.64  0.17  0.71  0.52  0.32  0.45  0.06  
11          0.64  0.17  0.71  0.52  0.32  0.45  0.06  
12          0.64  0.17  0.71  0.52  0.32  0.45  0.06  
13          0.64  0.17  0.71  0.52  0.32  0.45  0.06  
14          0.64  0.17  0.71  0.52  0.32  0.45  0.06  
15          0.64  0.17  0.71  0.52  0.32  0.45  0.06  
16          0.64  0.17  0.71  0.52  0.32  0.45  0.06  
17          0.64  0.17  0.71  0.52  0.32  0.45  0.06  
18          0.64  0.17  0.71  0.52  0.32  0.45  0.06  
19          0.64  0.17  0.71  0.52  0.32  0.45  0.06  
20          0.64  0.17  0.71  0.52  0.32  0.45  0.06  
21          0.64  0.17  0.71  0.52  0.32  0.45  0.06  
22          0.64  0.17  0.71  0.52  0.32  0.45  0.06  
23          0.64  0.17  0.71  0.52  0.32  0.45  0.06  
24          0.64  0.17  0.71  0.52  0.32  0.45  0.06  
25          0.61  0.16  0.67  0.49  0.31  0.43  0.06  
26          0.61  0.16  0.67  0.49  0.31  0.43  0.06  
27          0.61  0.16  0.67  0.49  0.31  0.43  0.06  
28          0.61  0.16  0.67  0.49  0.31  0.43  0.06  
29          0.61  0.16  0.67  0.49  0.31  0.43  0.06  
30          0.61  0.16  0.67  0.49  0.31  0.43  0.06  
31          0.61  0.16  0.67  0.49  0.31  0.43  0.06  
32          0.61  0.16  0.67  0.49  0.31  0.43  0.06  
33          0.61  0.16  0.67  0.49  0.31  0.43  0.06  
34          0.64  0.17  0.71  0.52  0.32  0.45  0.06  
35          0.64  0.17  0.71  0.52  0.32  0.45  0.06  
36          0.64  0.17  0.71  0.52  0.32  0.45  0.06  
37          0.64  0.17  0.71  0.52  0.32  0.45  0.06  
38          0.64  0.17  0.71  0.52  0.32  0.45  0.06  
39          0.64  0.17  0.71  0.52  0.32  0.45  0.06  
40          0.64  0.17  0.71  0.52  0.32  0.45  0.06  
41          0.64  0.17  0.71  0.52  0.32  0.45  0.06  
42          0.64  0.17  0.71  0.52  0.32  0.45  0.06  
43          0.64  0.17  0.71  0.52  0.32  0.45  0.06  
44          0.64  0.17  0.71  0.52  0.32  0.45  0.06  
45          0.64  0.17  0.71  0.52  0.32  0.45  0.06  

[*,*,F2 ]:  K1    K2    K3    K4    K5    K6    K7    :=
1           0.78  0.23  0.72  0.44  0.35  0.48  0.10  
2           0.78  0.23  0.72  0.44  0.35  0.48  0.10  
3           0.78  0.23  0.72  0.44  0.35  0.48  0.10  
4           0.78  0.23  0.72  0.44  0.35  0.48  0.10  
5           0.78  0.23  0.72  0.44  0.35  0.48  0.10  
6           0.78  0.23  0.72  0.44  0.35  0.48  0.10  
7           0.78  0.23  0.72  0.44  0.35  0.48  0.10  
8           0.78  0.23  0.72  0.44  0.35  0.48  0.10  
9           0.78  0.23  0.72  0.44  0.35  0.48  0.10  
10          0.78  0.23  0.72  0.44  0.35  0.48  0.10  
11          0.78  0.23  0.72  0.44  0.35  0.48  0.10  
12          0.78  0.23  0.72  0.44  0.35  0.48  0.10  
13          0.78  0.23  0.72  0.44  0.35  0.48  0.10  
14          0.78  0.23  0.72  0.44  0.35  0.48  0.10  
15          0.78  0.23  0.72  0.44  0.35  0.48  0.10  
16          0.78  0.23  0.72  0.44  0.35  0.48  0.10  
17          0.78  0.23  0.72  0.44  0.35  0.48  0.10  
18          0.78  0.23  0.72  0.44  0.35  0.48  0.10  
19          0.78  0.23  0.72  0.44  0.35  0.48  0.10  
20          0.78  0.23  0.72  0.44  0.35  0.48  0.10  
21          0.78  0.23  0.72  0.44  0.35  0.48  0.10  
22          0.78  0.23  0.72  0.44  0.35  0.48  0.10  
23          0.78  0.23  0.72  0.44  0.35  0.48  0.10  
24          0.78  0.23  0.72  0.44  0.35  0.48  0.10  
25          0.74  0.22  0.69  0.42  0.33  0.45  0.10  
26          0.74  0.22  0.69  0.42  0.33  0.45  0.10  
27          0.74  0.22  0.69  0.42  0.33  0.45  0.10  
28          0.74  0.22  0.69  0.42  0.33  0.45  0.10  
29          0.74  0.22  0.69  0.42  0.33  0.45  0.10  
30          0.74  0.22  0.69  0.42  0.33  0.45  0.10  
31          0.74  0.22  0.69  0.42  0.33  0.45  0.10  
32          0.74  0.22  0.69  0.42  0.33  0.45  0.10  
33          0.74  0.22  0.69  0.42  0.33  0.45  0.10  
34          0.78  0.23  0.72  0.44  0.35  0.48  0.10  
35          0.78  0.23  0.72  0.44  0.35  0.48  0.10  
36          0.78  0.23  0.72  0.44  0.35  0.48  0.10  
37          0.78  0.23  0.72  0.44  0.35  0.48  0.10  
38          0.78  0.23  0.72  0.44  0.35  0.48  0.10  
39          0.78  0.23  0.72  0.44  0.35  0.48  0.10  
40          0.78  0.23  0.72  0.44  0.35  0.48  0.10  
41          0.78  0.23  0.72  0.44  0.35  0.48  0.10  
42          0.78  0.23  0.72  0.44  0.35  0.48  0.10  
43          0.78  0.23  0.72  0.44  0.35  0.48  0.10  
44          0.78  0.23  0.72  0.44  0.35  0.48  0.10  
45          0.78  0.23  0.72  0.44  0.35  0.48  0.10  
; # downloads resource k can do at front f in time t if starting or ending flight

param W: 
	F1        F2        :=
1	697.15    697.15    
2	2788.61   2788.61   
3	2788.61   2788.61   
4	2788.61   2788.61   
5	2788.61   2788.61   
6	2788.61   2788.61   
7	2788.61   2788.61   
8	2788.61   2788.61   
9	2788.61   2788.61   
10	2788.61   2788.61   
11	2788.61   2788.61   
12	2788.61   2788.61   
13	2788.61   2788.61   
14	2788.61   2788.61   
15	2788.61   2788.61   
16	2788.61   2788.61   
17	2788.61   2788.61   
18	2788.61   2788.61   
19	1239.38   1239.38   
20	1239.38   1239.38   
21	1239.38   1239.38   
22	1239.38   1239.38   
23	1239.38   1239.38   
24	1239.38   1239.38   
25	1239.38   1239.38   
26	1239.38   1239.38   
27	1239.38   1239.38   
28	1239.38   1239.38   
29	1239.38   1239.38   
30	1239.38   1239.38   
31	1239.38   1239.38   
32	1239.38   1239.38   
33	1239.38   1239.38   
34	1239.38   1239.38   
35	1239.38   1239.38   
36	1239.38   1239.38   
37	1239.38   1239.38   
38	1239.38   1239.38   
39	1239.38   1239.38   
40	1239.38   1239.38   
41	1239.38   1239.38   
42	1239.38   1239.38   
43	1239.38   1239.38   
44	1239.38   1239.38   
45	309.85    309.85    
; # water needed at front f in time slot t

param M := 100000000; 

param a1:= 10000000;

param a2:= 100;

param a3:= 0.0001;
